z1,z2,z3,nondominated
5,1,2,0
7,8,4,0
7,8,4,0
7,5,5,0
10,8,5,0
8,9,8,0
4,8,9,0
10,3,6,0
4,9,4,0
1,6,5,0
10,4,1,0
4,9,3,0
6,1,4,0
10,4,4,0
7,2,9,0
10,6,7,0
5,6,2,0
4,1,10,0
6,4,4,0
1,1,2,0
3,1,6,0
10,3,2,0
9,6,8,0
10,3,10,0
6,9,2,0
4,6,10,0
5,10,1,0
1,1,10,0
1,8,9,0
7,3,6,0
10,2,2,0
4,1,6,0
8,1,8,0
5,1,3,0
1,4,8,0
5,6,3,0
4,5,7,0
10,6,1,0
3,10,7,0
10,3,6,0
10,8,6,0
8,4,8,0
10,10,7,0
3,2,8,0
8,2,3,0
10,6,1,0
7,2,1,0
5,2,3,0
3,9,3,0
1,1,1,0
1,1,1,0
1,1,1,0
1,1,1,0
1,1,1,0
1,1,1,0
1,1,1,0
